data/mip_solutions/furman_sahinidis/reduced_transportation/6sp1_cplex.log

Log started (V12.6.3.0) Thu Jan 25 20:43:02 2018

New value for default parallel thread count: 1

Problem '/tmp/tmp3Pgpd4.pyomo.lp' read.
Read time = 0.00 sec. (0.02 ticks)

Problem name         : /tmp/tmp3Pgpd4.pyomo.lp
Objective sense      : Minimize
Variables            :     266  [Nneg: 253,  Binary: 12,  General Integer: 1]
Objective nonzeros   :       1
Linear constraints   :      56  [Less: 12,  Equal: 44]
  Nonzeros           :     782
  RHS nonzeros       :      21

Variables            : Min LB: 0.000000         Max UB: 1.000000       
Objective nonzeros   : Min   : 1.000000         Max   : 1.000000       
Linear constraints   :
  Nonzeros           : Min   : 1.000000         Max   : 5956.000       
  RHS nonzeros       : Min   : 1.000000         Max   : 6048.000       
Tried aggregator 2 times.
MIP Presolve eliminated 24 rows and 185 columns.
Aggregator did 3 substitutions.
Reduced MIP has 29 rows, 78 columns, and 211 nonzeros.
Reduced MIP has 11 binaries, 0 generals, 0 SOSs, and 0 indicators.
Presolve time = 0.00 sec. (0.24 ticks)
Found incumbent of value 12.000000 after 0.00 sec. (0.46 ticks)
Probing time = 0.00 sec. (0.01 ticks)
Tried aggregator 1 time.
Reduced MIP has 29 rows, 78 columns, and 211 nonzeros.
Reduced MIP has 11 binaries, 0 generals, 0 SOSs, and 0 indicators.
Presolve time = 0.00 sec. (0.08 ticks)
Probing time = 0.00 sec. (0.01 ticks)
Clique table members: 4.
MIP emphasis: balance optimality and feasibility.
MIP search method: dynamic search.
Parallel mode: none, using 1 thread.
Root relaxation solution time = 0.00 sec. (0.31 ticks)

        Nodes                                         Cuts/
   Node  Left     Objective  IInf  Best Integer    Best Bound    ItCnt     Gap

*     0+    0                           12.0000        1.0000            91.67%
      0     0        4.0031     5       12.0000        4.0031       94   66.64%
*     0+    0                            7.0000        4.0031            42.81%
      0     0        4.5228     8        7.0000      Cuts: 41      131   35.39%
      0     0        4.5443     6        7.0000      Cuts: 53      151   35.08%
      0     0        5.0011     9        7.0000      Cuts: 35      168   28.56%
*     0+    0                            6.0000        5.0011            16.65%
      0     0        cutoff              6.0000        5.0011      168   16.65%
Elapsed time = 0.01 sec. (2.99 ticks, tree = 0.01 MB, solutions = 3)

Clique cuts applied:  1
Cover cuts applied:  4
Implied bound cuts applied:  7
Flow cuts applied:  5
Mixed integer rounding cuts applied:  3
Lift and project cuts applied:  1

Root node processing (before b&c):
  Real time             =    0.01 sec. (3.01 ticks)
Sequential b&c:
  Real time             =    0.00 sec. (0.00 ticks)
                          ------------
Total (root+branch&cut) =    0.01 sec. (3.01 ticks)

Solution pool: 3 solutions saved.

MIP - Integer optimal solution:  Objective =  6.0000000000e+00
Solution time =    0.01 sec.  Iterations = 168  Nodes = 0
Deterministic time = 3.01 ticks  (491.16 ticks/sec)


Incumbent solution written to file '/tmp/tmp37bgqu.cplex.sol'.
